&CONTROL

  calculation  = "vc-relax",

  restart_mode = "from_scratch",

  prefix       = "pp",

  pseudo_dir   = "./",

  outdir       = "./",

  wf_collect   = false

  nstep = 250

/

&SYSTEM

  ibrav     = 0 

  nat       = 8

  ntyp      = 1

  ecutwfc   = 40.D0 

  nosym     = .true.

 occupations='smearing'

 degauss=0.02

 smearing='marzari-vanderbilt'

/

&ELECTRONS

  conv_thr    = 1.D-06,

  mixing_beta=0.5,

  electron_maxstep = 250

/

&IONS

  ion_dynamics='bfgs'

/

&CELL

   cell_dynamics='bfgs'

   press = 0.01

   cell_factor=3.0

 /

ATOMIC_SPECIES

C  12. C.pbe-van_bm.upf

CELL_PARAMETERS cubic

 13.1606  -0.4396   0.0000

 -0.0852   8.7334   0.0023

  0.0001  -0.0012   4.6705

ATOMIC_POSITIONS {crystal} 

C        0.203673     0.433508     0.516815

C        0.116059     0.549106     0.013626

C        0.416461     0.354301     0.516603

C        0.916540     0.353518     0.938318

C        0.703783     0.432879     0.938542

C        0.503802     0.238259     0.013391

C        1.004116     0.237776     0.441492

C        0.616495     0.549108     0.441743

K_POINTS {automatic} 

   2    2    4  0 0 0
