&CONTROL

  calculation  = "vc-relax",

  restart_mode = "from_scratch",

  prefix       = "pp",

  pseudo_dir   = "./",

  outdir       = "./",

  wf_collect   = false

  nstep = 250

/

&SYSTEM

  ibrav     = 0 

  nat       = 8

  ntyp      = 1

  ecutwfc   = 40.D0 

  nosym     = .true.

 occupations='smearing'

 degauss=0.02

 smearing='marzari-vanderbilt'

/

&ELECTRONS

  conv_thr    = 1.D-06,

  mixing_beta=0.5,

  electron_maxstep = 250

/

&IONS

  ion_dynamics='bfgs'

/

&CELL

   cell_dynamics='bfgs'

   press = 0.01

   cell_factor=3.0

 /

ATOMIC_SPECIES

C  12. C.pbe-van_bm.upf

CELL_PARAMETERS cubic

  7.1286   0.0000   0.0000

  0.0000   7.1286   0.0000

  0.0000   0.0000   7.1286

ATOMIC_POSITIONS {crystal} 

C        0.750000     0.500000     0.375000

C        0.000000     0.250000     0.125000

C        0.250000     0.000000     0.875000

C        0.500000     0.750000     0.625000

C        0.750000     0.000000     0.875000

C        0.500000     0.250000     0.625000

C        0.000000     0.750000     0.125000

C        0.250000     0.500000     0.375000

K_POINTS {automatic} 

   3    3    3  0 0 0
