&CONTROL

  calculation  = "vc-relax",

  restart_mode = "from_scratch",

  prefix       = "pp",

  pseudo_dir   = "./",

  outdir       = "./",

  wf_collect   = false

  nstep = 250

/

&SYSTEM

  ibrav     = 0 

  nat       = 8

  ntyp      = 1

  ecutwfc   = 40.D0 

  nosym     = .true.

 occupations='smearing'

 degauss=0.02

 smearing='marzari-vanderbilt'

/

&ELECTRONS

  conv_thr    = 1.D-06,

  mixing_beta=0.5,

  electron_maxstep = 250

/

&IONS

  ion_dynamics='bfgs'

/

&CELL

   cell_dynamics='bfgs'

   press = 0.01

   cell_factor=3.0

 /

ATOMIC_SPECIES

C  12. C.pbe-van_bm.upf

CELL_PARAMETERS cubic

 14.7194   0.4433  -0.0007

  0.3705   7.7878   0.0025

  0.0005  -0.0010   4.6700

ATOMIC_POSITIONS {crystal} 

C        0.486366     1.027716     0.403989

C        0.916627     0.394096     0.404053

C       -0.155113     0.704095     0.404036

C        0.275406     0.072287     0.404008

C        0.954656     0.200417     0.904044

C        0.806948     0.897832     0.904038

C        0.181642     0.091474     0.904019

C        0.580137     0.007869     0.903980

K_POINTS {automatic} 

   2    3    4  0 0 0
