&CONTROL

  calculation  = "vc-relax",

  restart_mode = "from_scratch",

  prefix       = "pp",

  pseudo_dir   = "./",

  outdir       = "./",

  wf_collect   = .false.

  nstep = 250

/

&SYSTEM

  ibrav     = 0 

  nat       = 8

  ntyp      = 1

  ecutwfc   = 40.D0 

  nosym     = .true.

 occupations='smearing'

 degauss=0.02

 smearing='marzari-vanderbilt'

/

&ELECTRONS

  conv_thr    = 1.D-08,

  mixing_beta=0.5,

  electron_maxstep = 250

/

&IONS

  ion_dynamics='bfgs'

/

&CELL

   cell_dynamics='bfgs'

   press = 0.01

   cell_factor=1.5

 /

ATOMIC_SPECIES

C  12. C.pbe-van_bm.upf

CELL_PARAMETERS cubic

 11.6073  -2.2251  -0.0103

 -1.0198   9.6211   0.0014

 -0.0030  -0.0014   4.6957

ATOMIC_POSITIONS {crystal} 

C        0.822594     0.726311     0.255726

C        0.844218     0.589737     0.755785

C        0.456411     0.292497     0.254179

C        0.665839     0.165491     0.255025

C        0.613421     0.853491     0.254894

C        0.434899     0.429177     0.754116

C        0.777729     0.302424     0.755453

C        0.501514     0.716522     0.754470

K_POINTS {automatic} 

   2    3    5  0 0 0
