&CONTROL

  calculation  = "vc-relax",

  restart_mode = "from_scratch",

  prefix       = "pp",

  pseudo_dir   = "./",

  outdir       = "./",

  wf_collect   = .false.

  nstep = 250

/

&SYSTEM

  ibrav     = 0 

  nat       = 8

  ntyp      = 1

  ecutwfc   = 40.D0 

  nosym     = .true.

 occupations='smearing'

 degauss=0.02

 smearing='marzari-vanderbilt'

/

&ELECTRONS

  conv_thr    = 1.D-08,

  mixing_beta=0.5,

  electron_maxstep = 250

/

&IONS

  ion_dynamics='bfgs'

/

&CELL

   cell_dynamics='bfgs'

   press = 0.01

   cell_factor=1.5

 /

ATOMIC_SPECIES

C  12. C.pbe-van_bm.upf

CELL_PARAMETERS cubic

 13.9732  -1.4954  -1.3174

 -0.7798   7.6081  -0.1436

 -0.4070  -0.0550   4.6496

ATOMIC_POSITIONS {crystal} 

C        0.325684     0.730454     0.098293

C        0.485995     0.593525     0.179415

C        0.242753     0.804779     0.555699

C        0.569234     0.520205     0.722323

C        0.864340     0.210106    -0.132147

C        0.092057     0.959209     0.481634

C        0.720802     0.367960    -0.202351

C        0.949759     0.119917     0.412762

K_POINTS {automatic} 

   2    3    5  0 0 0
