&CONTROL

  calculation  = "vc-relax",

  restart_mode = "from_scratch",

  prefix       = "pp",

  pseudo_dir   = "./",

  outdir       = "./",

  wf_collect   = .false.

  nstep = 250

/

&SYSTEM

  ibrav     = 0 

  nat       = 8

  ntyp      = 1

  ecutwfc   = 40.D0 

  nosym     = .true.

 occupations='smearing'

 degauss=0.02

 smearing='marzari-vanderbilt'

/

&ELECTRONS

  conv_thr    = 1.D-08,

  mixing_beta=0.5,

  electron_maxstep = 250

/

&IONS

  ion_dynamics='bfgs'

/

&CELL

   cell_dynamics='bfgs'

   press = 0.01

   cell_factor=1.5

 /

ATOMIC_SPECIES

C  12. C.pbe-van_bm.upf

CELL_PARAMETERS cubic

 16.1704   1.6056   0.0020

  1.1032   7.4547   0.0036

  0.0004   0.0001   4.6560

ATOMIC_POSITIONS {crystal} 

C        0.290358     0.511390     0.070989

C        0.457552     0.343819     0.070983

C        0.207588     0.594193     0.571001

C        0.540321     0.261043     0.570952

C        0.790366     0.011446     0.070884

C        0.040324     0.761057     0.570925

C        0.957546     0.843876     0.070942

C        0.707588     0.094225     0.570922

K_POINTS {automatic} 

   2    3    5  0 0 0
