&CONTROL

  calculation  = "vc-relax",

  restart_mode = "from_scratch",

  prefix       = "pp",

  pseudo_dir   = "./",

  outdir       = "./",

  wf_collect   = .false.

  nstep = 250

/

&SYSTEM

  ibrav     = 0 

  nat       = 8

  ntyp      = 1

  ecutwfc   = 40.D0 

  nosym     = .true.

 occupations='smearing'

 degauss=0.02

 smearing='marzari-vanderbilt'

/

&ELECTRONS

  conv_thr    = 1.D-08,

  mixing_beta=0.5,

  electron_maxstep = 250

/

&IONS

  ion_dynamics='bfgs'

/

&CELL

   cell_dynamics='bfgs'

   press = 0.01

   cell_factor=1.5

 /

ATOMIC_SPECIES

C  12. C.pbe-van_bm.upf

CELL_PARAMETERS cubic

 13.9780  -1.4764   1.3123

 -0.7891   7.6055   0.1549

  0.4100   0.0521   4.6493

ATOMIC_POSITIONS {crystal} 

C        0.020280     0.732780     0.082475

C        0.481433     0.252654     0.852239

C        0.396093     0.342936     0.397282

C        0.103179     0.658391     0.539875

C        0.859848     0.869483     0.163758

C        0.624894     0.094655     0.781999

C        0.253804     0.503746     0.466086

C        0.776592     0.942826     0.706641

K_POINTS {automatic} 

   2    3    5  0 0 0
