&CONTROL

  calculation  = "vc-relax",

  restart_mode = "from_scratch",

  prefix       = "pp",

  pseudo_dir   = "./",

  outdir       = "./",

  wf_collect   = .false.

  nstep = 250

/

&SYSTEM

  ibrav     = 0 

  nat       = 8

  ntyp      = 1

  ecutwfc   = 40.D0 

  nosym     = .true.

 occupations='smearing'

 degauss=0.02

 smearing='marzari-vanderbilt'

/

&ELECTRONS

  conv_thr    = 1.D-08,

  mixing_beta=0.5,

  electron_maxstep = 250

/

&IONS

  ion_dynamics='bfgs'

/

&CELL

   cell_dynamics='bfgs'

   press = 0.01

   cell_factor=1.5

 /

ATOMIC_SPECIES

C  12. C.pbe-van_bm.upf

CELL_PARAMETERS cubic

 11.5868  -0.0000  -0.0000

  0.0000  10.4925   0.0000

  0.0000   0.0000   4.7950

ATOMIC_POSITIONS {crystal} 

C        0.500000     0.500009    -0.000004

C        0.000000     0.000006     0.249993

C        0.500000     0.000009    -0.000002

C       -0.000001     0.499978     0.249993

C        0.500000     0.500009     0.499999

C        0.000000    -0.000024     0.750009

C       -0.000001     0.500005     0.750012

C        0.500000     0.000008     0.499999

K_POINTS {automatic} 

   2    2    4  0 0 0
