&CONTROL

  calculation  = "vc-relax",

  restart_mode = "from_scratch",

  prefix       = "pp",

  pseudo_dir   = "./",

  outdir       = "./",

  wf_collect   = .false.

  nstep = 250

/

&SYSTEM

  ibrav     = 0 

  nat       = 8

  ntyp      = 1

  ecutwfc   = 40.D0 

  nosym     = .true.

 occupations='smearing'

 degauss=0.02

 smearing='marzari-vanderbilt'

/

&ELECTRONS

  conv_thr    = 1.D-08,

  mixing_beta=0.5,

  electron_maxstep = 250

/

&IONS

  ion_dynamics='bfgs'

/

&CELL

   cell_dynamics='bfgs'

   press = 0.01

   cell_factor=1.5

 /

ATOMIC_SPECIES

C  12. C.pbe-van_bm.upf

CELL_PARAMETERS cubic

 13.9875  -1.5073   1.1970

 -0.7661   7.6059   0.0675

  0.4151   0.0442   4.6487

ATOMIC_POSITIONS {crystal} 

C        0.728705     0.220361     0.938432

C        0.811546     1.145961     0.395999

C        0.191191     0.743402     0.706595

C        0.568274     0.356854     1.019281

C        0.105622    -0.166664     0.251093

C        0.485438     0.431213     0.561693

C        0.334443     0.584923     0.636457

C        0.962537     0.992220     0.321203

K_POINTS {automatic} 

   2    3    5  0 0 0
