&CONTROL

  calculation  = "vc-relax",

  restart_mode = "from_scratch",

  prefix       = "pp",

  pseudo_dir   = "./",

  outdir       = "./",

  wf_collect   = false

  nstep = 250

/

&SYSTEM

  ibrav     = 0 

  nat       = 8

  ntyp      = 1

  ecutwfc   = 40.D0 

  nosym     = .true.

 occupations='smearing'

 degauss=0.02

 smearing='marzari-vanderbilt'

/

&ELECTRONS

  conv_thr    = 1.D-06,

  mixing_beta=0.5,

  electron_maxstep = 250

/

&IONS

  ion_dynamics='bfgs'

/

&CELL

   cell_dynamics='bfgs'

   press = 0.01

   cell_factor=3.0

 /

ATOMIC_SPECIES

C  12. C.pbe-van_bm.upf

CELL_PARAMETERS cubic

 14.5987   0.1498   0.0001

  0.4718   7.8999   0.0020

 -0.0006  -0.0020   4.6694

ATOMIC_POSITIONS {crystal} 

C        0.316338     0.348236    -0.036520

C        0.246686     0.480120     0.460386

C        0.682297     0.880354     0.257429

C        0.857904     0.794118     0.204275

C        0.595623     0.951471     0.765530

C        0.442770     0.118151    -0.143415

C        0.121629     0.712003     0.592640

C        0.949239     0.763815     0.697810

K_POINTS {automatic} 

   2    2    4  0 0 0
