&CONTROL

  calculation  = "vc-relax",

  restart_mode = "from_scratch",

  prefix       = "pp",

  pseudo_dir   = "./",

  outdir       = "./",

  wf_collect   = false

  nstep = 250

/

&SYSTEM

  ibrav     = 0 

  nat       = 8

  ntyp      = 1

  ecutwfc   = 40.D0 

  nosym     = .true.

 occupations='smearing'

 degauss=0.02

 smearing='marzari-vanderbilt'

/

&ELECTRONS

  conv_thr    = 1.D-06,

  mixing_beta=0.5,

  electron_maxstep = 250

/

&IONS

  ion_dynamics='bfgs'

/

&CELL

   cell_dynamics='bfgs'

   press = 0.01

   cell_factor=3.0

 /

ATOMIC_SPECIES

C  12. C.pbe-van_bm.upf

CELL_PARAMETERS cubic

 14.7619   0.5095  -0.0004

  0.3906   7.8082   0.0026

  0.0005  -0.0010   4.6701

ATOMIC_POSITIONS {crystal} 

C        0.605405     0.693209     0.541031

C        0.221445     0.342951     0.543465

C        0.245685     0.670511     0.543774

C        0.673417     0.594356     0.041065

C        0.170850     0.184737     0.043471

C        0.235298     0.835087     0.043799

C       -0.022215     0.240496     1.041709

C        0.831503     0.398374     0.040968

K_POINTS {automatic} 

   2    3    4  0 0 0
