&CONTROL

  calculation  = "relax",

  restart_mode = "from_scratch",

  prefix       = "pp",

  pseudo_dir   = "./",

  outdir       = "./",

  wf_collect   = false

  nstep = 250

  disk_io = 'none'

/

&SYSTEM

  ibrav     = 0 

  nat       = 8

  ntyp      = 1

  ecutwfc   = 40.D0 

  nosym     = .true.

 occupations='smearing'

 degauss=0.02

 smearing='marzari-vanderbilt'

/

&ELECTRONS

  conv_thr    = 5.D-04,

  mixing_beta=0.5,

  electron_maxstep = 250

/

&IONS

  ion_dynamics='bfgs'

  trust_radius_max = 0.2

/

ATOMIC_SPECIES

C  12. C.pbe-van_bm.upf

CELL_PARAMETERS cubic

 10.7516   0.0000   0.0000

  0.0000   3.2010   0.0000

  0.0000   0.0000  10.5258

ATOMIC_POSITIONS {crystal} 

C        0.102900     0.076740     0.107370

C        0.102900     0.423260     0.392630

C        0.602900     0.076740     0.892630

C        0.602900     0.423260     0.607370

C        0.897100     0.923260     0.892630

C        0.897100     0.576740     0.607370

C        0.397100     0.923260     0.107370

C        0.397100     0.576740     0.392630

K_POINTS {automatic} 

   2    4    2  0 0 0
