&CONTROL

  calculation  = "vc-relax",

  restart_mode = "from_scratch",

  prefix       = "pp",

  pseudo_dir   = "./",

  outdir       = "./",

  wf_collect   = .false.

  nstep = 250

/

&SYSTEM

  ibrav     = 0 

  nat       = 8

  ntyp      = 1

  ecutwfc   = 40.D0 

  nosym     = .true.

 occupations='smearing'

 degauss=0.02

 smearing='marzari-vanderbilt'

/

&ELECTRONS

  conv_thr    = 1.D-08,

  mixing_beta=0.5,

  electron_maxstep = 250

/

&IONS

  ion_dynamics='bfgs'

/

&CELL

   cell_dynamics='bfgs'

   press = 0.01

   cell_factor=1.5

 /

ATOMIC_SPECIES

C  12. C.pbe-van_bm.upf

CELL_PARAMETERS cubic

 12.7610  -0.4929   0.0019

 -0.1281   9.2562   0.0047

  0.0011   0.0000   4.6581

ATOMIC_POSITIONS {crystal} 

C        0.464789     0.966575     1.403865

C        0.796877     0.632411     0.404031

C       -0.035973     0.465222     0.404258

C        0.297643     0.133693    -0.596069

C        1.047039     0.382651     0.904257

C        0.714201     0.715545     0.904014

C        0.214612     0.216249    -0.096074

C        0.547482    -0.116559     1.903880

K_POINTS {automatic} 

   2    3    5  0 0 0
