&CONTROL

  calculation  = "vc-relax",

  restart_mode = "from_scratch",

  prefix       = "pp",

  pseudo_dir   = "./",

  outdir       = "./",

  wf_collect   = false

  nstep = 250

/

&SYSTEM

  ibrav     = 0 

  nat       = 8

  ntyp      = 1

  ecutwfc   = 40.D0 

  nosym     = .true.

 occupations='smearing'

 degauss=0.02

 smearing='marzari-vanderbilt'

/

&ELECTRONS

  conv_thr    = 1.D-06,

  mixing_beta=0.5,

  electron_maxstep = 250

/

&IONS

  ion_dynamics='bfgs'

/

&CELL

   cell_dynamics='bfgs'

   press = 0.01

   cell_factor=3.0

 /

ATOMIC_SPECIES

C  12. C.pbe-van_bm.upf

CELL_PARAMETERS cubic

 12.8970  -0.2102   0.0037

  0.0139   9.2629   0.0065

  0.0017   0.0011   4.6557

ATOMIC_POSITIONS {crystal} 

C        0.278377     0.704996     0.484704

C        0.397819     0.683191     0.984643

C        0.089530     0.825955     0.484290

C        0.519776     0.437039     0.984817

C        0.552467    -0.092774    -0.015330

C        0.016917     0.918861     0.984194

C        0.568648     0.324806     0.484803

C        0.591494     0.030633     0.484556

K_POINTS {automatic} 

   2    2    4  0 0 0
