&CONTROL

  calculation  = "vc-relax",

  restart_mode = "from_scratch",

  prefix       = "pp",

  pseudo_dir   = "./",

  outdir       = "./",

  wf_collect   = .false.

  nstep = 250

/

&SYSTEM

  ibrav     = 0 

  nat       = 8

  ntyp      = 1

  ecutwfc   = 40.D0 

  nosym     = .true.

 occupations='smearing'

 degauss=0.02

 smearing='marzari-vanderbilt'

/

&ELECTRONS

  conv_thr    = 1.D-08,

  mixing_beta=0.5,

  electron_maxstep = 250

/

&IONS

  ion_dynamics='bfgs'

/

&CELL

   cell_dynamics='bfgs'

   press = 0.01

   cell_factor=1.5

 /

ATOMIC_SPECIES

C  12. C.pbe-van_bm.upf

CELL_PARAMETERS cubic

 13.7499  -0.0121   0.0155

  0.0835   8.6341   0.0189

  0.0057   0.0072   4.6540

ATOMIC_POSITIONS {crystal} 

C        0.017862     0.437734     0.405310

C        0.185260     0.270229     0.405331

C        0.517907     0.937859     0.405314

C        0.685384     0.770548     0.405291

C        0.767944     0.687946     0.905291

C        0.435313     0.020363     0.905317

C        0.935330     0.520411     0.905304

C        0.267826     0.187649     0.905333

K_POINTS {automatic} 

   2    3    5  0 0 0
