&CONTROL

  calculation  = "vc-relax",

  restart_mode = "from_scratch",

  prefix       = "pp",

  pseudo_dir   = "./",

  outdir       = "./",

  wf_collect   = false

  nstep = 250

/

&SYSTEM

  ibrav     = 0 

  nat       = 8

  ntyp      = 1

  ecutwfc   = 40.D0 

  nosym     = .true.

 occupations='smearing'

 degauss=0.02

 smearing='marzari-vanderbilt'

/

&ELECTRONS

  conv_thr    = 1.D-06,

  mixing_beta=0.5,

  electron_maxstep = 250

/

&IONS

  ion_dynamics='bfgs'

/

&CELL

   cell_dynamics='bfgs'

   press = 0.01

   cell_factor=3.0

 /

ATOMIC_SPECIES

C  12. C.pbe-van_bm.upf

CELL_PARAMETERS cubic

 13.2753  -0.3550   0.0023

 -0.0895   8.6356   0.0052

  0.0014   0.0006   4.6694

ATOMIC_POSITIONS {crystal} 

C        0.433700     0.659846     0.508325

C        0.003643     0.030488     0.504590

C        0.902756     0.310178     0.505280

C        0.530169     0.385631     0.508229

C        0.236198     0.623593     0.510214

C        0.806342     0.994645     0.506522

C        0.710095     0.269037     0.506515

C        0.337454     0.344857     0.509156

K_POINTS {automatic} 

   2    2    4  0 0 0
