&CONTROL

  calculation  = "vc-relax",

  restart_mode = "from_scratch",

  prefix       = "pp",

  pseudo_dir   = "./",

  outdir       = "./",

  wf_collect   = false

  nstep = 250

/

&SYSTEM

  ibrav     = 0 

  nat       = 8

  ntyp      = 1

  ecutwfc   = 40.D0 

  nosym     = .true.

 occupations='smearing'

 degauss=0.02

 smearing='marzari-vanderbilt'

/

&ELECTRONS

  conv_thr    = 1.D-06,

  mixing_beta=0.5,

  electron_maxstep = 250

/

&IONS

  ion_dynamics='bfgs'

/

&CELL

   cell_dynamics='bfgs'

   press = 0.01

   cell_factor=3.0

 /

ATOMIC_SPECIES

C  12. C.pbe-van_bm.upf

CELL_PARAMETERS cubic

 13.9076   0.3188  -0.0040

  0.1892   8.5404  -0.0028

  0.0083   0.0105   4.6588

ATOMIC_POSITIONS {crystal} 

C        0.299152     0.822488     0.504049

C        0.661138     0.525375     0.501450

C        0.114368    -0.127719     0.503162

C        0.848852     0.496355     0.502854

C        0.207894     0.141437     0.502519

C        0.395692     0.113301     0.502818

C        0.942691     0.765294     0.502361

C        0.758030     0.815775     0.500889

K_POINTS {automatic} 

   2    2    4  0 0 0
