&CONTROL

  calculation  = "vc-relax",

  restart_mode = "from_scratch",

  prefix       = "pp",

  pseudo_dir   = "./",

  outdir       = "./",

  wf_collect   = .false.

  nstep = 250

/

&SYSTEM

  ibrav     = 0 

  nat       = 8

  ntyp      = 1

  ecutwfc   = 40.D0 

  nosym     = .true.

 occupations='smearing'

 degauss=0.02

 smearing='marzari-vanderbilt'

/

&ELECTRONS

  conv_thr    = 1.D-08,

  mixing_beta=0.5,

  electron_maxstep = 250

/

&IONS

  ion_dynamics='bfgs'

/

&CELL

   cell_dynamics='bfgs'

   press = 0.01

   cell_factor=1.5

 /

ATOMIC_SPECIES

C  12. C.pbe-van_bm.upf

CELL_PARAMETERS cubic

 11.6101   0.2884   0.1296

  0.2658   9.8822   0.3412

  0.0407   0.1382   4.6933

ATOMIC_POSITIONS {crystal} 

C        0.548904     0.354259     0.838957

C        0.550602     0.647386     0.774565

C        0.659527     0.238987     0.340780

C        0.652822     0.755497     0.269276

C        0.346606     0.836298     0.643978

C        0.332861     0.237330     0.999630

C        0.314218     0.974931     0.110645

C        0.738481    -0.008148     0.296289

K_POINTS {automatic} 

   2    2    5  0 0 0
