&CONTROL

  calculation  = "vc-relax",

  restart_mode = "from_scratch",

  prefix       = "pp",

  pseudo_dir   = "./",

  outdir       = "./",

  wf_collect   = .false.

  nstep = 250

/

&SYSTEM

  ibrav     = 0 

  nat       = 8

  ntyp      = 1

  ecutwfc   = 40.D0 

  nosym     = .true.

 occupations='smearing'

 degauss=0.02

 smearing='marzari-vanderbilt'

/

&ELECTRONS

  conv_thr    = 1.D-08,

  mixing_beta=0.5,

  electron_maxstep = 250

/

&IONS

  ion_dynamics='bfgs'

/

&CELL

   cell_dynamics='bfgs'

   press = 0.01

   cell_factor=1.5

 /

ATOMIC_SPECIES

C  12. C.pbe-van_bm.upf

CELL_PARAMETERS cubic

 12.6973  -0.4983   0.0008

 -0.1419   9.3164   0.0007

  0.0045   0.0058   4.6578

ATOMIC_POSITIONS {crystal} 

C        0.280764     0.425980     0.300090

C        0.780595     0.925724     0.300038

C        0.363617     0.343162     0.800135

C        0.863408     0.842858    -0.199961

C        0.113473     0.592929     0.300088

C        0.030645     0.675811     0.800058

C        0.613444     1.092862     0.300066

C        0.530595     0.175775     0.800082

K_POINTS {automatic} 

   2    3    5  0 0 0
