&CONTROL

  calculation  = "vc-relax",

  restart_mode = "from_scratch",

  prefix       = "pp",

  pseudo_dir   = "./",

  outdir       = "./",

  wf_collect   = false

  nstep = 250

/

&SYSTEM

  ibrav     = 0 

  nat       = 8

  ntyp      = 1

  ecutwfc   = 40.D0 

  nosym     = .true.

 occupations='smearing'

 degauss=0.02

 smearing='marzari-vanderbilt'

/

&ELECTRONS

  conv_thr    = 1.D-06,

  mixing_beta=0.5,

  electron_maxstep = 250

/

&IONS

  ion_dynamics='bfgs'

/

&CELL

   cell_dynamics='bfgs'

   press = 0.01

   cell_factor=3.0

 /

ATOMIC_SPECIES

C  12. C.pbe-van_bm.upf

CELL_PARAMETERS cubic

 14.7428   0.1604   0.0002

  0.4677   7.8484   0.0024

 -0.0006  -0.0018   4.6696

ATOMIC_POSITIONS {crystal} 

C        0.869516     0.741580     0.850789

C        0.359059     1.020631     0.850535

C        0.525527     0.889913     0.850625

C        0.026353     0.871557     0.851079

C        0.607864     0.813242     0.350745

C        0.269213     1.036956     0.350644

C        0.102931    -0.051915     0.350984

C        0.780931     0.725289     0.350789

K_POINTS {automatic} 

   2    3    4  0 0 0
