&CONTROL

  calculation  = "vc-relax",

  restart_mode = "from_scratch",

  prefix       = "pp",

  pseudo_dir   = "./",

  outdir       = "./",

  wf_collect   = .false.

  nstep = 250

/

&SYSTEM

  ibrav     = 0 

  nat       = 8

  ntyp      = 1

  ecutwfc   = 40.D0 

  nosym     = .true.

 occupations='smearing'

 degauss=0.02

 smearing='marzari-vanderbilt'

/

&ELECTRONS

  conv_thr    = 1.D-08,

  mixing_beta=0.5,

  electron_maxstep = 250

/

&IONS

  ion_dynamics='bfgs'

/

&CELL

   cell_dynamics='bfgs'

   press = 0.01

   cell_factor=1.5

 /

ATOMIC_SPECIES

C  12. C.pbe-van_bm.upf

CELL_PARAMETERS cubic

 12.7034  -0.6776   0.0150

 -0.0028   9.3089   0.0142

  0.0043   0.0056   4.6579

ATOMIC_POSITIONS {crystal} 

C        0.135928     0.429275     0.014951

C        0.303202     0.262424     0.014495

C        0.386067     0.179539    -0.485440

C        1.053060     0.512059     0.514919

C        0.803028     0.762092     1.014300

C        0.885828     0.679165     1.514352

C        0.635975     0.929359     0.015042

C        0.553209     0.012321     0.515071

K_POINTS {automatic} 

   2    3    5  0 0 0
